problems/GracefulDoubleWheelGraphs/GracefulDoubleWheelGraphs-models/compact/O2/lingeling/model-n05-solution000001.solution
language Essence 1.3

letting colouring be
        function(0 --> 17, 1 --> 2, 2 --> 4, 3 --> 11, 4 --> 0, 5 --> 1, 6 --> 7, 7 --> 8, 8 --> 16, 9 --> 6, 10 --> 20)
letting edgeID be
        function(0 --> 15, 1 --> 2, 2 --> 7, 3 --> 11, 4 --> 17, 5 --> 6, 6 --> 1, 7 --> 8, 8 --> 10, 9 --> 5, 10 --> 3,
                 11 --> 18, 12 --> 16, 13 --> 9, 14 --> 20, 15 --> 19, 16 --> 13, 17 --> 12, 18 --> 4, 19 --> 14)
